data;

param n := 13;

param : E : c :=
1 2 2
1 3 5
2 4 4
2 5 6
2 8 6
3 4 5
3 6 3
3 9 6
4 5 5
4 7 2
5 8 5
5 7 1
6 7 2
6 9 4
7 9 2
8 10 5
8 11 5
9 10 5
9 12 5
10 11 2
10 12 4
11 13 3
12 13 4
# undirected arcs are treated as two directed arcs
2 1 2
3 1 5
4 2 4
5 2 6
8 2 6
4 3 5
6 3 3
9 3 6
5 4 5
7 4 2
8 5 5
7 5 1
7 6 2
9 6 4
9 7 2
10 8 5
11 8 5
10 9 5
12 9 5
11 10 2
12 10 4
13 11 3
13 12 4
;

end;